Name: Test Compound 1
Synon: Metabolite A
MW: 380.2489
Precursor_type: [M+H]+
Precursor_MZ: 381.2567
InChIKey: ABCDEFGHIJKLMNO-PQRSTUVWSA-N
Formula: C20H32O6
Num Peaks: 15
100.0456 50
115.0866 25
128.1070 80
143.1179 120
156.0767 30
171.1128 150
185.1285 75
200.1394 200
214.1550 100
229.1659 250
243.1816 180
257.1972 220
272.2081 300
286.2238 90
300.2394 350

Name: Test Compound 2
Synon: Metabolite B
MW: 424.3137
Precursor_type: [M+H]+
Precursor_MZ: 425.3214
InChIKey: BCDEFGHIJKLMNOP-QRSTUVWXYA-N
Formula: C24H40O5
Num Peaks: 17
102.0547 30
117.0656 60
131.0813 45
146.0922 90
160.1078 120
175.1187 150
189.1344 70
204.1453 180
218.1609 100
233.1718 200
247.1875 130
262.1984 160
276.2140 220
291.2249 250
305.2406 280
320.2515 110
334.2671 300

Name: Test Compound 3
Synon: Metabolite C
MW: 566.4046
Precursor_type: [M+H]+
Precursor_MZ: 567.4123
InChIKey: CDEFGHIJKLMNOPQ-RSTUVWXYZA-N
Formula: C30H54O8
Num Peaks: 20
105.0335 20
120.0444 40
134.0600 60
149.0709 80
163.0866 100
178.0975 120
192.1131 140
207.1240 160
221.1397 180
236.1506 200
250.1662 220
265.1771 240
279.1928 260
294.2037 280
308.2193 300
323.2302 320
337.2459 340
352.2568 360
366.2724 380
381.2833 400

Name: Test Compound 4 - Minimal
Precursor_type: [M+H]+
Precursor_MZ: 200.1234
Num Peaks: 3
100.0567 100
150.0789 200
180.1012 150